09-routing/solutions/XSH-n20-k4-05.opt.sol
Route #1: 17 7 19 11 12 1
Route #2: 10 18 14 6
Route #3: 15 13 4 3 2
Route #4: 8 5 16 9 20
Cost 702
